(set-logic QF_LIA)
(set-info :ran/ran7.smt2)
(set-info :smt-lib-version 2.0)
(declare-fun x0 () Int)
(declare-fun x1 () Int)
(declare-fun x2 () Int)
(declare-fun x3 () Int)
(declare-fun x4 () Int)
(declare-fun x5 () Int)
(declare-fun x6 () Int)
(define-fun ie0 () Bool (<= (+ (* (- 76) x0) (* (- 31) x3) (* (- 17) x6) (* 69 x2) ) 9))
(define-fun ie1 () Bool (<= (+ (* (- 80) x3) (* 48 x6) ) (- 22)))
(define-fun ie2 () Bool (<= (+ (* (- 37) x2) (* (- 24) x3) (* (- 32) x0) ) (- 1)))
(define-fun ie3 () Bool (<= (+ (* 13 x5) (* 95 x1) (* (- 79) x6) (* (- 38) x5) ) 34))
(define-fun ie4 () Bool (<= (+ (* (- 65) x4) (* (- 58) x5) (* 1 x2) ) 91))
(define-fun ie5 () Bool (<= (+ (* (- 58) x5) (* 81 x2) (* 35 x2) (* (- 55) x6) ) (- 7)))
(define-fun ie6 () Bool (<= (+ (* (- 62) x3) (* 85 x0) (* (- 43) x2) (* (- 71) x1) ) 57))
(assert ie0)
(assert ie1)
(assert ie2)
(assert ie3)
(assert ie4)
(assert ie5)
(assert ie6)
(check-sat)
(exit)
